c 158_4_checker_5cl.cnf
c
c field = 158
c formula set type = 4_checker_5cl
c
p cnf 5 6
344 
374 
404 
434 
-284 
345 
375 
405 
435 
-285 
346 
378 
410 
442 
-282 
347 
379 
411 
443 
-283 
342 
370 
398 
426 
-286 
343 
371 
399 
427 
-287 
